TCS_Benchmarks/redos_fix/snort3_output_distinct_2425_2424_16_0.txt
([^\s]+)(\s*)
([^\s]+)(\.data\.concat\s*\(([^\s]+)\.data)(\s*)